NAME : LC1_6_7
TYPE : PDPTW
DIMENSION : 150
EDGE_WEIGHT_TYPE : EXACT_2D
NODE_COORD_SECTION
1 1 0
2 150 0
3 0 0
4 20 240
5 395 2
6 505 685
7 3 229
8 376 90
9 214 156
10 90 0
11 260 10
12 0 448
13 -20 175
14 0 7
15 163 343
16 8 85
17 1033 90
18 105 230
19 90 0
20 111 -10
21 173 0
22 -20 1059
23 0 12
24 573 753
25 13 143
26 219 90
27 173 233
28 90 226
29 24 -20
30 170 0
31 10 229
32 115 17
33 502 682
34 18 141
35 288 90
36 100 73
37 90 0
38 70 30
39 0 540
40 10 248
41 619 22
42 359 539
43 23 129
44 708 90
45 62 65
46 90 596
47 239 -20
48 292 0
49 -30 507
50 0 27
51 658 838
52 28 203
53 233 90
54 251 241
55 90 0
56 110 20
57 0 506
58 10 95
59 383 32
60 789 969
61 33 145
62 585 90
63 121 170
64 90 256
65 141 20
66 0 93
67 20 306
68 146 37
69 645 825
70 38 122
71 595 90
72 119 267
73 90 0
74 113 -20
75 415 0
76 10 606
77 433 42
78 116 296
79 43 157
80 1287 90
81 73 226
82 90 0
83 109 40
84 0 618
85 -10 811
86 0 47
87 57 237
88 48 31
89 802 90
90 10 147
91 90 400
92 176 20
93 0 626
94 20 135
95 453 52
96 126 306
97 53 119
98 569 90
99 220 74
100 90 547
101 175 30
102 0 623
103 30 588
104 334 57
105 135 315
106 58 61
107 551 90
108 140 143
109 90 0
110 125 30
111 0 121
112 20 39
113 468 62
114 743 923
115 63 103
116 368 90
117 71 154
118 90 285
119 27 -10
120 487 0
121 -20 741
122 0 67
123 477 657
124 68 108
125 328 90
126 86 230
127 90 0
128 221 10
129 0 397
130 10 134
131 576 72
132 307 487
133 73 151
134 505 90
135 83 30
136 90 0
137 184 20
138 0 616
139 10 49
140 118 77
141 510 690
142 78 263
143 682 90
144 259 59
145 90 0
146 26 -20
147 414 0
148 -20 960
149 0 82
150 633 813
PICKUP_AND_DELIVERY_SECTION
1 0 0 0 0 0 0
2 0 0 0 0 1496 0
3 0 0 0 0 0 17
4 0 0 0 0 90 90
5 0 0 0 0 254 254
6 0 0 0 0 205 205
7 0 0 0 0 -10 -10
8 0 0 0 0 0 0
9 0 0 0 0 612 612
10 0 0 0 0 5 5
11 0 0 0 0 476 476
12 0 0 0 0 29 29
13 0 0 0 0 90 90
14 0 0 0 0 277 277
15 0 0 0 0 0 0
16 0 0 0 0 -10 -10
17 0 0 0 0 0 0
18 0 0 0 0 91 91
19 0 0 0 0 10 10
20 0 0 0 0 221 221
21 0 0 0 0 65 65
22 0 0 0 0 90 90
23 0 0 0 0 233 233
24 0 0 0 0 190 190
25 0 0 0 0 20 20
26 0 0 0 0 338 0
27 0 0 0 0 563 563
28 0 0 0 0 15 0
29 0 0 0 0 594 594
30 0 0 0 0 277 277
31 0 0 0 0 90 90
32 0 0 0 0 105 105
33 0 0 0 0 0 0
34 0 0 0 0 30 30
35 0 0 0 0 251 0
36 0 0 0 0 182 182
37 0 0 0 0 20 20
38 0 0 0 0 299 299
39 0 0 0 0 161 161
40 0 0 0 0 0 0
41 0 0 0 0 280 280
42 0 0 0 0 0 0
43 0 0 0 0 -20 -20
44 0 0 0 0 0 0
45 0 0 0 0 874 874
46 0 0 0 0 25 0
47 0 0 0 0 692 692
48 0 0 0 0 9 9
49 0 0 0 0 90 90
50 0 0 0 0 228 228
51 0 0 0 0 142 142
52 0 0 0 0 20 20
53 0 0 0 0 571 0
54 0 0 0 0 141 141
55 0 0 0 0 30 30
56 0 0 0 0 514 514
57 0 0 0 0 106 106
58 0 0 0 0 90 90
59 0 0 0 0 102 102
60 0 0 0 0 0 0
61 0 0 0 0 -10 -10
62 0 0 0 0 0 0
63 0 0 0 0 507 507
64 0 0 0 0 35 0
65 0 0 0 0 585 585
66 0 0 0 0 167 167
67 0 0 0 0 90 90
68 0 0 0 0 229 229
69 0 0 0 0 362 362
70 0 0 0 0 -20 -20
71 0 0 0 0 0 0
72 0 0 0 0 577 577
73 0 0 0 0 40 40
74 0 0 0 0 827 827
75 0 0 0 0 257 257
76 0 0 0 0 90 90
77 0 0 0 0 266 266
78 0 0 0 0 0 0
79 0 0 0 0 -30 -30
80 0 0 0 0 0 0
81 0 0 0 0 108 108
82 0 0 0 0 45 45
83 0 0 0 0 356 356
84 0 0 0 0 12 12
85 0 0 0 0 90 90
86 0 0 0 0 126 126
87 0 0 0 0 330 330
88 0 0 0 0 -10 -10
89 0 0 0 0 0 0
90 0 0 0 0 324 324
91 0 0 0 0 50 0
92 0 0 0 0 395 395
93 0 0 0 0 277 277
94 0 0 0 0 90 90
95 0 0 0 0 232 232
96 0 0 0 0 465 465
97 0 0 0 0 20 20
98 0 0 0 0 567 0
99 0 0 0 0 767 767
100 0 0 0 0 55 0
101 0 0 0 0 502 502
102 0 0 0 0 144 144
103 0 0 0 0 90 90
104 0 0 0 0 285 285
105 0 0 0 0 0 0
106 0 0 0 0 -20 -20
107 0 0 0 0 0 0
108 0 0 0 0 12 12
109 0 0 0 0 60 60
110 0 0 0 0 427 427
111 0 0 0 0 114 114
112 0 0 0 0 90 90
113 0 0 0 0 80 80
114 0 0 0 0 193 193
115 0 0 0 0 20 20
116 0 0 0 0 110 0
117 0 0 0 0 835 835
118 0 0 0 0 65 0
119 0 0 0 0 500 500
120 0 0 0 0 67 67
121 0 0 0 0 90 90
122 0 0 0 0 132 132
123 0 0 0 0 0 0
124 0 0 0 0 10 10
125 0 0 0 0 332 0
126 0 0 0 0 103 103
127 0 0 0 0 70 70
128 0 0 0 0 1118 1118
129 0 0 0 0 116 116
130 0 0 0 0 90 90
131 0 0 0 0 28 28
132 0 0 0 0 87 87
133 0 0 0 0 -10 -10
134 0 0 0 0 0 0
135 0 0 0 0 510 510
136 0 0 0 0 75 75
137 0 0 0 0 309 309
138 0 0 0 0 141 141
139 0 0 0 0 90 90
140 0 0 0 0 156 156
141 0 0 0 0 348 348
142 0 0 0 0 -20 -20
143 0 0 0 0 0 0
144 0 0 0 0 511 511
145 0 0 0 0 80 80
146 0 0 0 0 1042 1042
147 0 0 0 0 59 59
148 0 0 0 0 90 90
149 0 0 0 0 4 4
150 0 0 0 0 0 0
DEPOT_SECTION
1 
-1
EOF
